0 200 800
1 3600 2300
2 3100 3300
3 4700 5750
4 5400 5750
5 5608 7103
6 4493 7102
7 3600 6950
8 3100 7250
9 4700 8450
10 5400 8450
11 5610 10053
12 4492 10052
13 3600 10800
14 3100 10950
15 4700 11650
16 5400 11650
17 6650 10800
18 7300 10950
19 7300 7250
20 6650 6950
21 7300 3300
22 6650 2300
23 200 12200
24 200 1100
